nNurses = 169;
nHours = 32;
minHours = 10;
maxHours = 20;
maxConsec = 10;
maxPresence = 19;
demand = [16, 18, 20, 20, 23, 23, 19, 15, 16, 18, 22, 21, 17, 14, 17, 20, 25, 20, 20, 16, 12, 16, 16, 12, 9, 9, 14, 12, 15, 11, 16, 19];
